DIMACS_lns/graph-1000-126.col
p edge 1000 1843
e 1 15
e 1 603
e 1 155
e 1 92
e 2 208
e 2 642
e 2 789
e 2 538
e 3 733
e 3 498
e 3 552
e 4 770
e 4 309
e 4 844
e 4 441
e 4 14
e 4 988
e 4 574
e 4 898
e 5 613
e 5 950
e 5 352
e 6 256
e 6 320
e 6 390
e 7 497
e 7 672
e 7 839
e 7 89
e 7 669
e 7 885
e 8 524
e 8 539
e 8 998
e 8 350
e 10 121
e 10 720
e 10 79
e 10 752
e 10 333
e 10 685
e 11 985
e 11 261
e 11 88
e 11 747
e 11 473
e 11 845
e 11 517
e 12 947
e 12 933
e 12 489
e 13 594
e 13 898
e 13 487
e 13 683
e 14 640
e 14 643
e 14 242
e 15 247
e 15 504
e 15 632
e 16 505
e 16 196
e 16 220
e 16 344
e 16 910
e 16 727
e 18 209
e 18 414
e 18 588
e 18 20
e 18 985
e 18 262
e 18 266
e 19 124
e 19 918
e 19 348
e 19 591
e 19 469
e 19 619
e 20 786
e 20 916
e 20 172
e 20 375
e 22 785
e 22 169
e 22 273
e 22 761
e 22 230
e 22 423
e 23 643
e 23 995
e 23 805
e 26 431
e 26 192
e 26 147
e 26 50
e 27 955
e 27 566
e 27 66
e 27 330
e 27 752
e 28 605
e 28 507
e 28 324
e 28 235
e 28 132
e 29 101
e 29 119
e 29 89
e 29 33
e 32 991
e 32 960
e 32 818
e 32 539
e 32 487
e 32 559
e 32 925
e 32 997
e 32 314
e 33 71
e 33 570
e 33 110
e 34 397
e 34 419
e 34 91
e 34 845
e 34 194
e 36 534
e 36 775
e 36 586
e 36 38
e 36 74
e 36 582
e 38 686
e 38 230
e 38 76
e 39 581
e 39 536
e 39 485
e 42 835
e 42 90
e 42 678
e 42 512
e 43 683
e 43 926
e 43 924
e 43 284
e 43 391
e 43 589
e 44 816
e 44 238
e 44 469
e 46 849
e 46 673
e 46 181
e 47 780
e 47 90
e 47 389
e 47 183
e 50 255
e 50 83
e 50 958
e 50 984
e 52 652
e 52 372
e 52 749
e 52 980
e 52 400
e 53 177
e 53 456
e 53 488
e 53 803
e 53 786
e 53 728
e 53 220
e 53 783
e 54 465
e 54 659
e 54 179
e 55 526
e 55 464
e 55 535
e 55 505
e 55 979
e 55 271
e 56 632
e 56 273
e 56 716
e 56 364
e 56 79
e 57 218
e 57 330
e 57 493
e 57 497
e 58 558
e 58 67
e 58 463
e 58 491
e 58 292
e 58 684
e 58 974
e 59 838
e 59 923
e 59 70
e 59 563
e 60 887
e 60 912
e 60 781
e 60 832
e 60 152
e 61 767
e 61 761
e 61 609
e 61 64
e 62 577
e 62 325
e 62 831
e 63 657
e 63 420
e 63 710
e 64 570
e 64 151
e 64 1000
e 64 304
e 64 917
e 65 551
e 65 834
e 65 565
e 65 360
e 66 91
e 66 505
e 66 892
e 66 254
e 67 329
e 67 76
e 67 949
e 68 684
e 68 440
e 68 332
e 68 359
e 68 786
e 70 488
e 70 586
e 70 599
e 71 732
e 71 969
e 71 729
e 72 405
e 72 969
e 72 99
e 72 442
e 73 465
e 73 667
e 73 963
e 74 377
e 74 487
e 75 388
e 75 875
e 75 988
e 75 539
e 75 669
e 75 889
e 76 545
e 76 525
e 76 93
e 77 145
e 77 357
e 77 789
e 77 174
e 77 248
e 77 870
e 77 353
e 79 965
e 79 470
e 80 750
e 80 545
e 80 606
e 81 817
e 81 666
e 81 132
e 81 487
e 81 267
e 81 650
e 81 781
e 82 192
e 82 635
e 82 172
e 82 98
e 83 811
e 83 117
e 83 143
e 85 99
e 85 949
e 85 157
e 85 597
e 85 987
e 86 223
e 86 521
e 86 191
e 87 610
e 87 92
e 87 803
e 88 384
e 88 482
e 88 498
e 88 339
e 88 400
e 88 785
e 88 223
e 88 816
e 89 663
e 89 332
e 90 797
e 90 350
e 90 183
e 90 227
e 90 854
e 90 379
e 90 637
e 90 718
e 91 176
e 91 505
e 92 500
e 92 933
e 92 912
e 93 295
e 93 699
e 93 877
e 93 347
e 93 668
e 94 525
e 94 121
e 94 842
e 94 868
e 94 647
e 94 691
e 95 602
e 95 684
e 95 473
e 95 861
e 95 906
e 95 301
e 96 344
e 96 562
e 96 979
e 97 869
e 97 325
e 97 756
e 98 681
e 98 227
e 98 994
e 98 137
e 98 932
e 99 598
e 99 607
e 99 718
e 100 712
e 100 385
e 100 951
e 100 667
e 100 236
e 101 856
e 101 272
e 101 719
e 103 158
e 103 791
e 103 582
e 103 599
e 107 987
e 107 849
e 107 276
e 109 174
e 109 700
e 109 823
e 110 209
e 110 899
e 110 229
e 110 459
e 110 497
e 111 834
e 111 393
e 111 164
e 111 256
e 112 403
e 112 419
e 112 345
e 112 605
e 112 282
e 115 817
e 115 502
e 115 599
e 117 777
e 117 256
e 117 589
e 117 347
e 118 666
e 118 403
e 118 476
e 118 350
e 118 198
e 119 391
e 119 335
e 120 846
e 120 549
e 120 817
e 120 866
e 121 950
e 121 610
e 121 806
e 121 296
e 121 529
e 121 210
e 124 179
e 124 534
e 125 575
e 125 770
e 125 812
e 128 907
e 128 131
e 128 824
e 128 554
e 128 940
e 128 721
e 130 919
e 130 323
e 130 872
e 130 216
e 131 165
e 131 318
e 131 768
e 132 874
e 132 661
e 132 871
e 133 468
e 133 779
e 133 590
e 133 579
e 133 901
e 133 336
e 133 628
e 136 461
e 136 597
e 136 511
e 136 765
e 136 204
e 136 612
e 137 759
e 137 962
e 137 878
e 137 479
e 138 170
e 138 642
e 138 370
e 140 630
e 140 862
e 140 631
e 140 515
e 140 974
e 140 760
e 140 848
e 142 566
e 142 978
e 142 171
e 142 341
e 143 554
e 143 282
e 143 823
e 143 740
e 143 602
e 144 466
e 144 602
e 144 448
e 144 250
e 145 299
e 145 410
e 146 895
e 146 515
e 146 236
e 146 591
e 146 327
e 147 324
e 147 390
e 147 575
e 148 549
e 148 710
e 148 349
e 148 218
e 148 521
e 148 780
e 148 170
e 148 198
e 150 997
e 150 953
e 150 325
e 150 902
e 151 553
e 151 615
e 151 828
e 151 470
e 151 164
e 152 739
e 152 273
e 152 429
e 152 776
e 154 170
e 154 647
e 154 541
e 154 917
e 155 210
e 155 328
e 155 381
e 155 245
e 156 590
e 156 211
e 156 374
e 157 841
e 157 799
e 158 562
e 158 780
e 158 335
e 159 922
e 159 487
e 159 491
e 162 392
e 162 539
e 162 787
e 162 841
e 162 536
e 163 391
e 163 888
e 163 169
e 163 776
e 164 862
e 164 306
e 164 950
e 165 442
e 165 963
e 167 657
e 167 231
e 167 303
e 167 379
e 167 909
e 167 673
e 168 214
e 168 807
e 168 631
e 168 852
e 168 965
e 169 805
e 169 454
e 169 655
e 169 798
e 170 585
e 170 987
e 170 838
e 171 880
e 171 251
e 171 233
e 171 709
e 171 206
e 172 267
e 172 873
e 172 675
e 173 543
e 173 785
e 173 319
e 174 824
e 176 923
e 176 782
e 177 266
e 177 840
e 177 502
e 177 826
e 177 270
e 177 275
e 177 619
e 179 577
e 179 384
e 179 420
e 179 732
e 180 369
e 180 768
e 180 717
e 180 835
e 180 572
e 180 296
e 181 898
e 181 964
e 183 827
e 183 569
e 183 888
e 183 591
e 185 640
e 185 357
e 185 503
e 185 502
e 185 223
e 188 468
e 188 735
e 188 702
e 188 632
e 188 921
e 190 609
e 190 965
e 190 493
e 191 628
e 191 862
e 191 667
e 191 698
e 191 867
e 192 342
e 192 391
e 192 720
e 192 455
e 192 406
e 192 213
e 193 349
e 193 342
e 193 885
e 193 452
e 194 998
e 194 390
e 196 260
e 196 754
e 196 592
e 196 811
e 198 415
e 199 240
e 199 616
e 199 686
e 200 963
e 200 611
e 200 850
e 200 376
e 200 650
e 200 309
e 200 926
e 200 444
e 200 803
e 201 586
e 201 917
e 201 645
e 201 830
e 201 866
e 201 384
e 202 549
e 202 217
e 202 344
e 202 873
e 203 828
e 203 698
e 203 464
e 203 738
e 204 965
e 204 826
e 204 855
e 204 231
e 204 719
e 204 327
e 204 792
e 205 836
e 205 502
e 205 831
e 205 923
e 206 896
e 206 377
e 206 601
e 206 666
e 206 963
e 207 429
e 207 357
e 207 877
e 208 739
e 208 812
e 208 253
e 209 296
e 209 318
e 209 304
e 210 624
e 210 441
e 211 847
e 211 228
e 212 664
e 212 549
e 212 697
e 212 691
e 212 292
e 212 782
e 213 365
e 213 545
e 213 899
e 213 939
e 213 241
e 213 493
e 214 511
e 214 647
e 214 488
e 214 729
e 214 314
e 214 453
e 214 290
e 216 275
e 216 990
e 216 488
e 216 447
e 217 980
e 217 220
e 218 432
e 218 862
e 218 618
e 218 717
e 218 242
e 218 345
e 218 624
e 219 299
e 219 784
e 219 965
e 219 982
e 219 559
e 219 962
e 219 352
e 220 917
e 221 545
e 221 320
e 221 436
e 221 1000
e 222 752
e 222 766
e 222 984
e 223 310
e 223 414
e 223 842
e 223 816
e 225 823
e 225 829
e 225 636
e 225 555
e 226 909
e 226 873
e 226 875
e 227 924
e 227 630
e 227 847
e 227 835
e 227 274
e 227 845
e 227 452
e 228 947
e 228 862
e 228 626
e 229 537
e 229 944
e 229 895
e 229 873
e 229 574
e 229 408
e 230 726
e 230 670
e 231 381
e 231 257
e 231 944
e 231 374
e 231 797
e 231 616
e 231 626
e 231 664
e 231 662
e 232 641
e 232 724
e 232 432
e 232 261
e 232 989
e 233 917
e 233 500
e 233 582
e 235 668
e 235 463
e 236 849
e 236 641
e 236 252
e 236 900
e 238 720
e 238 452
e 238 673
e 239 869
e 239 325
e 239 666
e 239 522
e 239 768
e 240 337
e 240 708
e 241 387
e 241 250
e 242 995
e 242 872
e 242 753
e 242 488
e 245 488
e 245 328
e 245 750
e 245 565
e 246 270
e 246 501
e 246 844
e 247 924
e 247 882
e 248 453
e 248 969
e 248 460
e 249 655
e 249 897
e 249 895
e 250 984
e 251 458
e 251 455
e 251 561
e 251 406
e 252 979
e 252 563
e 252 983
e 253 788
e 253 775
e 253 670
e 254 267
e 254 337
e 254 478
e 255 925
e 255 487
e 256 585
e 256 505
e 256 896
e 256 684
e 257 559
e 257 696
e 257 599
e 257 958
e 257 842
e 257 725
e 257 623
e 257 739
e 259 425
e 259 268
e 259 522
e 259 396
e 260 309
e 260 418
e 261 939
e 261 962
e 261 446
e 262 939
e 262 502
e 265 864
e 265 455
e 265 392
e 266 579
e 266 670
e 266 892
e 266 447
e 267 406
e 268 657
e 268 719
e 268 619
e 268 352
e 268 978
e 268 592
e 269 663
e 269 398
e 269 448
e 269 717
e 269 900
e 270 406
e 270 962
e 270 301
e 270 839
e 270 902
e 271 426
e 271 545
e 271 577
e 271 766
e 271 541
e 272 476
e 272 392
e 272 385
e 272 780
e 272 740
e 273 495
e 273 935
e 274 357
e 274 372
e 274 555
e 275 897
e 275 794
e 276 357
e 276 879
e 276 634
e 276 307
e 276 564
e 278 599
e 278 771
e 278 979
e 278 717
e 279 500
e 279 932
e 279 650
e 279 336
e 279 592
e 279 912
e 279 405
e 280 896
e 280 357
e 280 303
e 281 761
e 281 563
e 281 497
e 282 481
e 282 445
e 282 728
e 282 706
e 284 403
e 284 633
e 284 406
e 284 610
e 284 988
e 285 457
e 285 605
e 285 962
e 285 663
e 285 503
e 288 496
e 288 921
e 288 643
e 288 984
e 288 728
e 288 652
e 289 783
e 289 823
e 289 431
e 290 902
e 290 508
e 290 757
e 290 445
e 290 725
e 292 986
e 293 683
e 293 510
e 293 744
e 293 927
e 293 789
e 295 915
e 295 820
e 295 468
e 295 564
e 296 663
e 296 710
e 296 497
e 296 917
e 296 335
e 296 311
e 298 750
e 298 363
e 298 575
e 299 619
e 299 935
e 299 550
e 300 693
e 300 380
e 300 417
e 301 702
e 301 816
e 303 607
e 303 360
e 303 729
e 304 512
e 304 868
e 304 924
e 304 876
e 304 622
e 305 566
e 305 497
e 305 657
e 305 948
e 306 544
e 306 780
e 306 931
e 307 850
e 307 797
e 307 349
e 307 849
e 307 974
e 307 414
e 308 779
e 308 322
e 308 828
e 308 891
e 308 403
e 309 373
e 309 808
e 310 549
e 310 439
e 310 495
e 311 895
e 311 698
e 311 661
e 311 544
e 312 859
e 312 370
e 312 892
e 312 899
e 312 681
e 312 947
e 314 452
e 314 353
e 315 751
e 315 543
e 315 794
e 315 619
e 315 526
e 318 824
e 318 928
e 319 889
e 319 636
e 319 841
e 320 887
e 320 951
e 320 792
e 320 855
e 320 369
e 322 390
e 322 463
e 322 833
e 322 486
e 322 868
e 323 709
e 323 923
e 324 779
e 325 463
e 325 789
e 325 359
e 326 776
e 326 486
e 326 709
e 327 851
e 327 732
e 327 965
e 328 582
e 328 611
e 328 803
e 328 735
e 329 357
e 329 554
e 330 426
e 330 498
e 331 851
e 331 899
e 331 652
e 332 695
e 332 995
e 332 931
e 332 362
e 332 894
e 333 334
e 333 638
e 334 563
e 334 906
e 334 783
e 334 700
e 335 671
e 335 553
e 336 715
e 337 491
e 337 495
e 337 807
e 337 426
e 338 630
e 338 805
e 338 465
e 339 602
e 339 758
e 339 508
e 339 706
e 341 365
e 341 945
e 342 444
e 342 572
e 342 445
e 342 396
e 343 599
e 343 562
e 343 867
e 343 811
e 343 675
e 344 505
e 344 996
e 344 859
e 344 555
e 345 408
e 345 440
e 347 801
e 348 359
e 348 633
e 348 960
e 349 464
e 349 649
e 349 947
e 349 427
e 349 635
e 350 998
e 350 673
e 350 598
e 352 771
e 352 933
e 353 801
e 353 965
e 353 429
e 353 713
e 356 420
e 356 848
e 356 852
e 356 887
e 356 759
e 356 592
e 357 785
e 357 940
e 358 907
e 358 630
e 358 503
e 359 636
e 359 694
e 359 666
e 359 721
e 360 864
e 362 398
e 362 546
e 363 826
e 363 917
e 364 901
e 364 780
e 365 607
e 365 646
e 367 707
e 367 569
e 367 639
e 367 847
e 367 851
e 367 717
e 369 370
e 369 415
e 369 788
e 372 626
e 372 707
e 372 789
e 372 425
e 372 863
e 373 787
e 373 392
e 373 849
e 373 824
e 374 921
e 374 635
e 374 687
e 375 379
e 375 408
e 375 396
e 376 872
e 376 1000
e 376 947
e 376 564
e 377 896
e 377 756
e 379 835
e 380 541
e 380 659
e 380 739
e 380 504
e 381 517
e 381 754
e 384 639
e 384 740
e 385 779
e 385 458
e 385 665
e 387 864
e 387 784
e 387 842
e 387 721
e 387 758
e 388 569
e 388 425
e 388 415
e 388 663
e 389 885
e 389 807
e 390 792
e 390 976
e 390 531
e 390 708
e 391 988
e 391 612
e 391 586
e 391 594
e 391 696
e 392 818
e 392 927
e 393 799
e 393 396
e 393 551
e 393 695
e 396 715
e 396 646
e 396 928
e 397 524
e 397 455
e 398 628
e 398 742
e 400 598
e 400 618
e 400 749
e 403 549
e 403 566
e 403 930
e 403 933
e 405 902
e 405 886
e 405 550
e 406 820
e 406 719
e 406 988
e 407 536
e 407 947
e 407 611
e 408 887
e 408 994
e 408 845
e 408 632
e 408 935
e 408 460
e 410 585
e 410 888
e 410 648
e 410 607
e 410 906
e 410 632
e 411 475
e 411 720
e 411 940
e 411 639
e 413 558
e 413 838
e 413 871
e 413 891
e 413 562
e 413 620
e 414 912
e 414 439
e 415 653
e 415 515
e 415 781
e 415 777
e 416 880
e 416 469
e 416 916
e 416 799
e 416 446
e 417 869
e 417 775
e 417 434
e 418 931
e 418 727
e 419 437
e 419 702
e 419 616
e 419 558
e 420 588
e 423 561
e 423 844
e 423 649
e 425 673
e 425 717
e 425 675
e 426 576
e 426 489
e 426 747
e 427 690
e 427 437
e 429 705
e 429 898
e 429 485
e 431 495
e 431 764
e 431 535
e 431 476
e 431 753
e 432 601
e 432 891
e 433 930
e 433 637
e 433 460
e 434 829
e 434 983
e 434 994
e 435 948
e 435 972
e 435 900
e 435 944
e 435 836
e 435 510
e 435 794
e 436 534
e 436 962
e 437 444
e 437 460
e 437 708
e 439 747
e 439 974
e 440 722
e 441 987
e 441 613
e 442 720
e 442 524
e 442 764
e 444 732
e 444 801
e 444 469
e 445 472
e 446 856
e 447 589
e 447 637
e 447 479
e 448 1000
e 448 599
e 448 568
e 448 921
e 448 616
e 450 832
e 450 465
e 450 678
e 451 859
e 451 570
e 451 696
e 451 998
e 451 647
e 452 733
e 453 538
e 454 554
e 454 705
e 454 897
e 454 549
e 455 921
e 455 715
e 455 931
e 455 457
e 456 757
e 456 910
e 457 716
e 458 506
e 459 965
e 459 561
e 460 983
e 460 706
e 460 765
e 461 827
e 461 912
e 461 862
e 463 679
e 463 618
e 463 464
e 464 563
e 465 830
e 465 724
e 466 986
e 466 828
e 466 504
e 468 678
e 468 593
e 469 869
e 469 481
e 469 758
e 469 522
e 470 931
e 470 811
e 472 592
e 472 875
e 473 613
e 473 760
e 475 877
e 475 852
e 476 484
e 476 481
e 476 712
e 478 672
e 478 882
e 478 961
e 479 850
e 479 866
e 481 693
e 481 650
e 481 626
e 482 744
e 482 953
e 482 486
e 484 660
e 484 980
e 484 876
e 485 623
e 485 835
e 485 898
e 486 581
e 486 705
e 488 698
e 489 611
e 491 695
e 491 641
e 493 996
e 493 602
e 493 574
e 493 603
e 495 708
e 495 662
e 495 771
e 496 870
e 496 539
e 497 912
e 498 929
e 498 895
e 498 615
e 498 750
e 500 615
e 501 729
e 501 797
e 501 699
e 502 982
e 503 659
e 504 951
e 504 599
e 505 581
e 505 910
e 505 669
e 506 583
e 506 619
e 507 949
e 507 693
e 507 641
e 507 657
e 508 993
e 510 593
e 511 580
e 512 537
e 512 626
e 512 780
e 515 769
e 515 879
e 517 787
e 517 593
e 517 798
e 521 878
e 521 847
e 522 895
e 522 726
e 525 856
e 526 972
e 526 634
e 529 539
e 529 819
e 529 558
e 529 976
e 531 641
e 531 724
e 531 844
e 534 832
e 535 870
e 535 538
e 537 882
e 537 576
e 538 989
e 539 592
e 539 791
e 539 727
e 539 590
e 539 604
e 540 665
e 540 565
e 540 765
e 543 808
e 543 899
e 544 637
e 544 832
e 546 897
e 546 598
e 549 819
e 550 698
e 551 640
e 552 829
e 552 652
e 552 892
e 553 995
e 553 594
e 553 705
e 553 921
e 553 888
e 555 579
e 555 788
e 558 717
e 558 728
e 559 639
e 559 849
e 561 728
e 561 665
e 561 846
e 562 684
e 562 751
e 562 722
e 562 947
e 562 842
e 562 624
e 563 713
e 564 853
e 564 781
e 564 700
e 565 757
e 565 756
e 565 895
e 566 671
e 566 690
e 568 838
e 568 910
e 569 978
e 570 624
e 570 997
e 570 685
e 570 694
e 570 599
e 572 679
e 572 696
e 574 907
e 575 969
e 576 947
e 577 958
e 577 590
e 579 841
e 579 997
e 579 665
e 579 641
e 579 849
e 580 597
e 580 871
e 581 733
e 581 757
e 582 991
e 582 738
e 582 800
e 582 964
e 583 820
e 583 974
e 583 869
e 585 826
e 588 863
e 590 649
e 592 910
e 592 724
e 592 855
e 593 601
e 594 619
e 597 701
e 598 829
e 598 655
e 598 831
e 601 835
e 601 701
e 602 855
e 603 827
e 603 715
e 603 812
e 604 831
e 604 934
e 605 901
e 605 669
e 605 949
e 606 879
e 606 925
e 606 781
e 607 659
e 609 672
e 609 924
e 609 808
e 611 712
e 612 976
e 615 982
e 616 993
e 616 691
e 620 797
e 620 803
e 622 878
e 622 948
e 622 844
e 623 811
e 623 670
e 623 642
e 624 943
e 624 939
e 626 990
e 626 800
e 627 636
e 627 713
e 627 798
e 628 854
e 631 872
e 631 932
e 632 922
e 633 733
e 633 742
e 634 894
e 635 935
e 637 687
e 638 721
e 638 806
e 641 722
e 645 854
e 645 780
e 645 654
e 645 989
e 645 978
e 645 662
e 646 996
e 648 667
e 648 926
e 648 897
e 648 808
e 650 984
e 650 918
e 653 879
e 653 723
e 654 940
e 654 775
e 656 944
e 656 668
e 656 918
e 657 926
e 657 984
e 659 700
e 659 666
e 659 784
e 660 955
e 660 749
e 660 969
e 660 993
e 661 789
e 661 787
e 661 914
e 663 909
e 663 935
e 664 816
e 667 983
e 667 840
e 667 824
e 668 918
e 668 892
e 669 994
e 670 671
e 671 836
e 672 988
e 673 947
e 675 697
e 678 945
e 678 701
e 679 963
e 681 922
e 681 974
e 683 816
e 683 996
e 684 864
e 685 889
e 686 849
e 687 926
e 687 998
e 690 897
e 691 829
e 691 758
e 694 997
e 694 707
e 695 919
e 695 898
e 695 926
e 695 807
e 697 897
e 697 1000
e 698 792
e 698 816
e 699 819
e 700 709
e 701 717
e 701 765
e 702 929
e 702 886
e 706 976
e 706 764
e 707 991
e 708 912
e 708 923
e 708 886
e 709 853
e 710 879
e 712 757
e 712 868
e 716 805
e 716 842
e 716 744
e 718 923
e 720 988
e 722 907
e 723 757
e 723 986
e 723 817
e 724 759
e 724 915
e 724 887
e 725 940
e 725 943
e 726 747
e 726 909
e 731 988
e 731 927
e 731 816
e 731 889
e 732 839
e 733 994
e 735 1000
e 735 929
e 738 832
e 739 831
e 742 764
e 747 915
e 750 767
e 751 994
e 753 914
e 753 989
e 753 826
e 754 914
e 754 862
e 756 770
e 757 996
e 758 769
e 758 921
e 758 993
e 759 965
e 760 950
e 760 984
e 761 806
e 765 791
e 766 943
e 767 808
e 768 945
e 768 935
e 769 995
e 771 993
e 776 980
e 776 800
e 777 839
e 777 824
e 778 934
e 778 910
e 778 900
e 778 850
e 780 879
e 782 892
e 782 923
e 784 828
e 784 934
e 784 836
e 785 851
e 786 801
e 791 953
e 797 898
e 798 882
e 799 916
e 803 806
e 803 969
e 803 960
e 805 830
e 806 898
e 806 867
e 807 820
e 812 921
e 812 828
e 816 976
e 818 830
e 823 872
e 823 987
e 823 940
e 823 852
e 826 899
e 829 990
e 833 875
e 833 838
e 833 935
e 834 867
e 836 909
e 839 863
e 840 969
e 841 870
e 842 889
e 842 922
e 846 876
e 846 947
e 846 850
e 847 930
e 848 892
e 853 951
e 856 933
e 861 985
e 861 949
e 863 914
e 866 987
e 866 928
e 868 984
e 871 939
e 871 955
e 874 947
e 874 961
e 875 919
e 878 964
e 880 940
e 882 909
e 885 969
e 887 944
e 887 894
e 889 982
e 889 985
e 900 951
e 900 994
e 906 962
e 907 964
e 912 940
e 916 980
e 924 930
e 932 964
e 935 984
e 948 961
e 949 989
e 950 964
e 962 985
e 972 994
e 982 994
