txt_Ins/graph-1000-126.txt
n 1000
e 0 14
e 0 602
e 0 154
e 0 91
e 1 207
e 1 641
e 1 788
e 1 537
e 2 732
e 2 497
e 2 551
e 3 769
e 3 308
e 3 843
e 3 440
e 3 13
e 3 987
e 3 573
e 3 897
e 4 612
e 4 949
e 4 351
e 5 255
e 5 319
e 5 389
e 6 496
e 6 671
e 6 838
e 6 88
e 6 668
e 6 884
e 7 523
e 7 538
e 7 997
e 7 349
e 9 120
e 9 719
e 9 78
e 9 751
e 9 332
e 9 684
e 10 984
e 10 260
e 10 87
e 10 746
e 10 472
e 10 844
e 10 516
e 11 946
e 11 932
e 11 488
e 12 593
e 12 897
e 12 486
e 12 682
e 13 639
e 13 642
e 13 241
e 14 246
e 14 503
e 14 631
e 15 504
e 15 195
e 15 219
e 15 343
e 15 909
e 15 726
e 17 208
e 17 413
e 17 587
e 17 19
e 17 984
e 17 261
e 17 265
e 18 123
e 18 917
e 18 347
e 18 590
e 18 468
e 18 618
e 19 785
e 19 915
e 19 171
e 19 374
e 21 784
e 21 168
e 21 272
e 21 760
e 21 229
e 21 422
e 22 642
e 22 994
e 22 804
e 25 430
e 25 191
e 25 146
e 25 49
e 26 954
e 26 565
e 26 65
e 26 329
e 26 751
e 27 604
e 27 506
e 27 323
e 27 234
e 27 131
e 28 100
e 28 118
e 28 88
e 28 32
e 31 990
e 31 959
e 31 817
e 31 538
e 31 486
e 31 558
e 31 924
e 31 996
e 31 313
e 32 70
e 32 569
e 32 109
e 33 396
e 33 418
e 33 90
e 33 844
e 33 193
e 35 533
e 35 774
e 35 585
e 35 37
e 35 73
e 35 581
e 37 685
e 37 229
e 37 75
e 38 580
e 38 535
e 38 484
e 41 834
e 41 89
e 41 677
e 41 511
e 42 682
e 42 925
e 42 923
e 42 283
e 42 390
e 42 588
e 43 815
e 43 237
e 43 468
e 45 848
e 45 672
e 45 180
e 46 779
e 46 89
e 46 388
e 46 182
e 49 254
e 49 82
e 49 957
e 49 983
e 51 651
e 51 371
e 51 748
e 51 979
e 51 399
e 52 176
e 52 455
e 52 487
e 52 802
e 52 785
e 52 727
e 52 219
e 52 782
e 53 464
e 53 658
e 53 178
e 54 525
e 54 463
e 54 534
e 54 504
e 54 978
e 54 270
e 55 631
e 55 272
e 55 715
e 55 363
e 55 78
e 56 217
e 56 329
e 56 492
e 56 496
e 57 557
e 57 66
e 57 462
e 57 490
e 57 291
e 57 683
e 57 973
e 58 837
e 58 922
e 58 69
e 58 562
e 59 886
e 59 911
e 59 780
e 59 831
e 59 151
e 60 766
e 60 760
e 60 608
e 60 63
e 61 576
e 61 324
e 61 830
e 62 656
e 62 419
e 62 709
e 63 569
e 63 150
e 63 999
e 63 303
e 63 916
e 64 550
e 64 833
e 64 564
e 64 359
e 65 90
e 65 504
e 65 891
e 65 253
e 66 328
e 66 75
e 66 948
e 67 683
e 67 439
e 67 331
e 67 358
e 67 785
e 69 487
e 69 585
e 69 598
e 70 731
e 70 968
e 70 728
e 71 404
e 71 968
e 71 98
e 71 441
e 72 464
e 72 666
e 72 962
e 73 376
e 73 486
e 74 387
e 74 874
e 74 987
e 74 538
e 74 668
e 74 888
e 75 544
e 75 524
e 75 92
e 76 144
e 76 356
e 76 788
e 76 173
e 76 247
e 76 869
e 76 352
e 78 964
e 78 469
e 79 749
e 79 544
e 79 605
e 80 816
e 80 665
e 80 131
e 80 486
e 80 266
e 80 649
e 80 780
e 81 191
e 81 634
e 81 171
e 81 97
e 82 810
e 82 116
e 82 142
e 84 98
e 84 948
e 84 156
e 84 596
e 84 986
e 85 222
e 85 520
e 85 190
e 86 609
e 86 91
e 86 802
e 87 383
e 87 481
e 87 497
e 87 338
e 87 399
e 87 784
e 87 222
e 87 815
e 88 662
e 88 331
e 89 796
e 89 349
e 89 182
e 89 226
e 89 853
e 89 378
e 89 636
e 89 717
e 90 175
e 90 504
e 91 499
e 91 932
e 91 911
e 92 294
e 92 698
e 92 876
e 92 346
e 92 667
e 93 524
e 93 120
e 93 841
e 93 867
e 93 646
e 93 690
e 94 601
e 94 683
e 94 472
e 94 860
e 94 905
e 94 300
e 95 343
e 95 561
e 95 978
e 96 868
e 96 324
e 96 755
e 97 680
e 97 226
e 97 993
e 97 136
e 97 931
e 98 597
e 98 606
e 98 717
e 99 711
e 99 384
e 99 950
e 99 666
e 99 235
e 100 855
e 100 271
e 100 718
e 102 157
e 102 790
e 102 581
e 102 598
e 106 986
e 106 848
e 106 275
e 108 173
e 108 699
e 108 822
e 109 208
e 109 898
e 109 228
e 109 458
e 109 496
e 110 833
e 110 392
e 110 163
e 110 255
e 111 402
e 111 418
e 111 344
e 111 604
e 111 281
e 114 816
e 114 501
e 114 598
e 116 776
e 116 255
e 116 588
e 116 346
e 117 665
e 117 402
e 117 475
e 117 349
e 117 197
e 118 390
e 118 334
e 119 845
e 119 548
e 119 816
e 119 865
e 120 949
e 120 609
e 120 805
e 120 295
e 120 528
e 120 209
e 123 178
e 123 533
e 124 574
e 124 769
e 124 811
e 127 906
e 127 130
e 127 823
e 127 553
e 127 939
e 127 720
e 129 918
e 129 322
e 129 871
e 129 215
e 130 164
e 130 317
e 130 767
e 131 873
e 131 660
e 131 870
e 132 467
e 132 778
e 132 589
e 132 578
e 132 900
e 132 335
e 132 627
e 135 460
e 135 596
e 135 510
e 135 764
e 135 203
e 135 611
e 136 758
e 136 961
e 136 877
e 136 478
e 137 169
e 137 641
e 137 369
e 139 629
e 139 861
e 139 630
e 139 514
e 139 973
e 139 759
e 139 847
e 141 565
e 141 977
e 141 170
e 141 340
e 142 553
e 142 281
e 142 822
e 142 739
e 142 601
e 143 465
e 143 601
e 143 447
e 143 249
e 144 298
e 144 409
e 145 894
e 145 514
e 145 235
e 145 590
e 145 326
e 146 323
e 146 389
e 146 574
e 147 548
e 147 709
e 147 348
e 147 217
e 147 520
e 147 779
e 147 169
e 147 197
e 149 996
e 149 952
e 149 324
e 149 901
e 150 552
e 150 614
e 150 827
e 150 469
e 150 163
e 151 738
e 151 272
e 151 428
e 151 775
e 153 169
e 153 646
e 153 540
e 153 916
e 154 209
e 154 327
e 154 380
e 154 244
e 155 589
e 155 210
e 155 373
e 156 840
e 156 798
e 157 561
e 157 779
e 157 334
e 158 921
e 158 486
e 158 490
e 161 391
e 161 538
e 161 786
e 161 840
e 161 535
e 162 390
e 162 887
e 162 168
e 162 775
e 163 861
e 163 305
e 163 949
e 164 441
e 164 962
e 166 656
e 166 230
e 166 302
e 166 378
e 166 908
e 166 672
e 167 213
e 167 806
e 167 630
e 167 851
e 167 964
e 168 804
e 168 453
e 168 654
e 168 797
e 169 584
e 169 986
e 169 837
e 170 879
e 170 250
e 170 232
e 170 708
e 170 205
e 171 266
e 171 872
e 171 674
e 172 542
e 172 784
e 172 318
e 173 823
e 175 922
e 175 781
e 176 265
e 176 839
e 176 501
e 176 825
e 176 269
e 176 274
e 176 618
e 178 576
e 178 383
e 178 419
e 178 731
e 179 368
e 179 767
e 179 716
e 179 834
e 179 571
e 179 295
e 180 897
e 180 963
e 182 826
e 182 568
e 182 887
e 182 590
e 184 639
e 184 356
e 184 502
e 184 501
e 184 222
e 187 467
e 187 734
e 187 701
e 187 631
e 187 920
e 189 608
e 189 964
e 189 492
e 190 627
e 190 861
e 190 666
e 190 697
e 190 866
e 191 341
e 191 390
e 191 719
e 191 454
e 191 405
e 191 212
e 192 348
e 192 341
e 192 884
e 192 451
e 193 997
e 193 389
e 195 259
e 195 753
e 195 591
e 195 810
e 197 414
e 198 239
e 198 615
e 198 685
e 199 962
e 199 610
e 199 849
e 199 375
e 199 649
e 199 308
e 199 925
e 199 443
e 199 802
e 200 585
e 200 916
e 200 644
e 200 829
e 200 865
e 200 383
e 201 548
e 201 216
e 201 343
e 201 872
e 202 827
e 202 697
e 202 463
e 202 737
e 203 964
e 203 825
e 203 854
e 203 230
e 203 718
e 203 326
e 203 791
e 204 835
e 204 501
e 204 830
e 204 922
e 205 895
e 205 376
e 205 600
e 205 665
e 205 962
e 206 428
e 206 356
e 206 876
e 207 738
e 207 811
e 207 252
e 208 295
e 208 317
e 208 303
e 209 623
e 209 440
e 210 846
e 210 227
e 211 663
e 211 548
e 211 696
e 211 690
e 211 291
e 211 781
e 212 364
e 212 544
e 212 898
e 212 938
e 212 240
e 212 492
e 213 510
e 213 646
e 213 487
e 213 728
e 213 313
e 213 452
e 213 289
e 215 274
e 215 989
e 215 487
e 215 446
e 216 979
e 216 219
e 217 431
e 217 861
e 217 617
e 217 716
e 217 241
e 217 344
e 217 623
e 218 298
e 218 783
e 218 964
e 218 981
e 218 558
e 218 961
e 218 351
e 219 916
e 220 544
e 220 319
e 220 435
e 220 999
e 221 751
e 221 765
e 221 983
e 222 309
e 222 413
e 222 841
e 222 815
e 224 822
e 224 828
e 224 635
e 224 554
e 225 908
e 225 872
e 225 874
e 226 923
e 226 629
e 226 846
e 226 834
e 226 273
e 226 844
e 226 451
e 227 946
e 227 861
e 227 625
e 228 536
e 228 943
e 228 894
e 228 872
e 228 573
e 228 407
e 229 725
e 229 669
e 230 380
e 230 256
e 230 943
e 230 373
e 230 796
e 230 615
e 230 625
e 230 663
e 230 661
e 231 640
e 231 723
e 231 431
e 231 260
e 231 988
e 232 916
e 232 499
e 232 581
e 234 667
e 234 462
e 235 848
e 235 640
e 235 251
e 235 899
e 237 719
e 237 451
e 237 672
e 238 868
e 238 324
e 238 665
e 238 521
e 238 767
e 239 336
e 239 707
e 240 386
e 240 249
e 241 994
e 241 871
e 241 752
e 241 487
e 244 487
e 244 327
e 244 749
e 244 564
e 245 269
e 245 500
e 245 843
e 246 923
e 246 881
e 247 452
e 247 968
e 247 459
e 248 654
e 248 896
e 248 894
e 249 983
e 250 457
e 250 454
e 250 560
e 250 405
e 251 978
e 251 562
e 251 982
e 252 787
e 252 774
e 252 669
e 253 266
e 253 336
e 253 477
e 254 924
e 254 486
e 255 584
e 255 504
e 255 895
e 255 683
e 256 558
e 256 695
e 256 598
e 256 957
e 256 841
e 256 724
e 256 622
e 256 738
e 258 424
e 258 267
e 258 521
e 258 395
e 259 308
e 259 417
e 260 938
e 260 961
e 260 445
e 261 938
e 261 501
e 264 863
e 264 454
e 264 391
e 265 578
e 265 669
e 265 891
e 265 446
e 266 405
e 267 656
e 267 718
e 267 618
e 267 351
e 267 977
e 267 591
e 268 662
e 268 397
e 268 447
e 268 716
e 268 899
e 269 405
e 269 961
e 269 300
e 269 838
e 269 901
e 270 425
e 270 544
e 270 576
e 270 765
e 270 540
e 271 475
e 271 391
e 271 384
e 271 779
e 271 739
e 272 494
e 272 934
e 273 356
e 273 371
e 273 554
e 274 896
e 274 793
e 275 356
e 275 878
e 275 633
e 275 306
e 275 563
e 277 598
e 277 770
e 277 978
e 277 716
e 278 499
e 278 931
e 278 649
e 278 335
e 278 591
e 278 911
e 278 404
e 279 895
e 279 356
e 279 302
e 280 760
e 280 562
e 280 496
e 281 480
e 281 444
e 281 727
e 281 705
e 283 402
e 283 632
e 283 405
e 283 609
e 283 987
e 284 456
e 284 604
e 284 961
e 284 662
e 284 502
e 287 495
e 287 920
e 287 642
e 287 983
e 287 727
e 287 651
e 288 782
e 288 822
e 288 430
e 289 901
e 289 507
e 289 756
e 289 444
e 289 724
e 291 985
e 292 682
e 292 509
e 292 743
e 292 926
e 292 788
e 294 914
e 294 819
e 294 467
e 294 563
e 295 662
e 295 709
e 295 496
e 295 916
e 295 334
e 295 310
e 297 749
e 297 362
e 297 574
e 298 618
e 298 934
e 298 549
e 299 692
e 299 379
e 299 416
e 300 701
e 300 815
e 302 606
e 302 359
e 302 728
e 303 511
e 303 867
e 303 923
e 303 875
e 303 621
e 304 565
e 304 496
e 304 656
e 304 947
e 305 543
e 305 779
e 305 930
e 306 849
e 306 796
e 306 348
e 306 848
e 306 973
e 306 413
e 307 778
e 307 321
e 307 827
e 307 890
e 307 402
e 308 372
e 308 807
e 309 548
e 309 438
e 309 494
e 310 894
e 310 697
e 310 660
e 310 543
e 311 858
e 311 369
e 311 891
e 311 898
e 311 680
e 311 946
e 313 451
e 313 352
e 314 750
e 314 542
e 314 793
e 314 618
e 314 525
e 317 823
e 317 927
e 318 888
e 318 635
e 318 840
e 319 886
e 319 950
e 319 791
e 319 854
e 319 368
e 321 389
e 321 462
e 321 832
e 321 485
e 321 867
e 322 708
e 322 922
e 323 778
e 324 462
e 324 788
e 324 358
e 325 775
e 325 485
e 325 708
e 326 850
e 326 731
e 326 964
e 327 581
e 327 610
e 327 802
e 327 734
e 328 356
e 328 553
e 329 425
e 329 497
e 330 850
e 330 898
e 330 651
e 331 694
e 331 994
e 331 930
e 331 361
e 331 893
e 332 333
e 332 637
e 333 562
e 333 905
e 333 782
e 333 699
e 334 670
e 334 552
e 335 714
e 336 490
e 336 494
e 336 806
e 336 425
e 337 629
e 337 804
e 337 464
e 338 601
e 338 757
e 338 507
e 338 705
e 340 364
e 340 944
e 341 443
e 341 571
e 341 444
e 341 395
e 342 598
e 342 561
e 342 866
e 342 810
e 342 674
e 343 504
e 343 995
e 343 858
e 343 554
e 344 407
e 344 439
e 346 800
e 347 358
e 347 632
e 347 959
e 348 463
e 348 648
e 348 946
e 348 426
e 348 634
e 349 997
e 349 672
e 349 597
e 351 770
e 351 932
e 352 800
e 352 964
e 352 428
e 352 712
e 355 419
e 355 847
e 355 851
e 355 886
e 355 758
e 355 591
e 356 784
e 356 939
e 357 906
e 357 629
e 357 502
e 358 635
e 358 693
e 358 665
e 358 720
e 359 863
e 361 397
e 361 545
e 362 825
e 362 916
e 363 900
e 363 779
e 364 606
e 364 645
e 366 706
e 366 568
e 366 638
e 366 846
e 366 850
e 366 716
e 368 369
e 368 414
e 368 787
e 371 625
e 371 706
e 371 788
e 371 424
e 371 862
e 372 786
e 372 391
e 372 848
e 372 823
e 373 920
e 373 634
e 373 686
e 374 378
e 374 407
e 374 395
e 375 871
e 375 999
e 375 946
e 375 563
e 376 895
e 376 755
e 378 834
e 379 540
e 379 658
e 379 738
e 379 503
e 380 516
e 380 753
e 383 638
e 383 739
e 384 778
e 384 457
e 384 664
e 386 863
e 386 783
e 386 841
e 386 720
e 386 757
e 387 568
e 387 424
e 387 414
e 387 662
e 388 884
e 388 806
e 389 791
e 389 975
e 389 530
e 389 707
e 390 987
e 390 611
e 390 585
e 390 593
e 390 695
e 391 817
e 391 926
e 392 798
e 392 395
e 392 550
e 392 694
e 395 714
e 395 645
e 395 927
e 396 523
e 396 454
e 397 627
e 397 741
e 399 597
e 399 617
e 399 748
e 402 548
e 402 565
e 402 929
e 402 932
e 404 901
e 404 885
e 404 549
e 405 819
e 405 718
e 405 987
e 406 535
e 406 946
e 406 610
e 407 886
e 407 993
e 407 844
e 407 631
e 407 934
e 407 459
e 409 584
e 409 887
e 409 647
e 409 606
e 409 905
e 409 631
e 410 474
e 410 719
e 410 939
e 410 638
e 412 557
e 412 837
e 412 870
e 412 890
e 412 561
e 412 619
e 413 911
e 413 438
e 414 652
e 414 514
e 414 780
e 414 776
e 415 879
e 415 468
e 415 915
e 415 798
e 415 445
e 416 868
e 416 774
e 416 433
e 417 930
e 417 726
e 418 436
e 418 701
e 418 615
e 418 557
e 419 587
e 422 560
e 422 843
e 422 648
e 424 672
e 424 716
e 424 674
e 425 575
e 425 488
e 425 746
e 426 689
e 426 436
e 428 704
e 428 897
e 428 484
e 430 494
e 430 763
e 430 534
e 430 475
e 430 752
e 431 600
e 431 890
e 432 929
e 432 636
e 432 459
e 433 828
e 433 982
e 433 993
e 434 947
e 434 971
e 434 899
e 434 943
e 434 835
e 434 509
e 434 793
e 435 533
e 435 961
e 436 443
e 436 459
e 436 707
e 438 746
e 438 973
e 439 721
e 440 986
e 440 612
e 441 719
e 441 523
e 441 763
e 443 731
e 443 800
e 443 468
e 444 471
e 445 855
e 446 588
e 446 636
e 446 478
e 447 999
e 447 598
e 447 567
e 447 920
e 447 615
e 449 831
e 449 464
e 449 677
e 450 858
e 450 569
e 450 695
e 450 997
e 450 646
e 451 732
e 452 537
e 453 553
e 453 704
e 453 896
e 453 548
e 454 920
e 454 714
e 454 930
e 454 456
e 455 756
e 455 909
e 456 715
e 457 505
e 458 964
e 458 560
e 459 982
e 459 705
e 459 764
e 460 826
e 460 911
e 460 861
e 462 678
e 462 617
e 462 463
e 463 562
e 464 829
e 464 723
e 465 985
e 465 827
e 465 503
e 467 677
e 467 592
e 468 868
e 468 480
e 468 757
e 468 521
e 469 930
e 469 810
e 471 591
e 471 874
e 472 612
e 472 759
e 474 876
e 474 851
e 475 483
e 475 480
e 475 711
e 477 671
e 477 881
e 477 960
e 478 849
e 478 865
e 480 692
e 480 649
e 480 625
e 481 743
e 481 952
e 481 485
e 483 659
e 483 979
e 483 875
e 484 622
e 484 834
e 484 897
e 485 580
e 485 704
e 487 697
e 488 610
e 490 694
e 490 640
e 492 995
e 492 601
e 492 573
e 492 602
e 494 707
e 494 661
e 494 770
e 495 869
e 495 538
e 496 911
e 497 928
e 497 894
e 497 614
e 497 749
e 499 614
e 500 728
e 500 796
e 500 698
e 501 981
e 502 658
e 503 950
e 503 598
e 504 580
e 504 909
e 504 668
e 505 582
e 505 618
e 506 948
e 506 692
e 506 640
e 506 656
e 507 992
e 509 592
e 510 579
e 511 536
e 511 625
e 511 779
e 514 768
e 514 878
e 516 786
e 516 592
e 516 797
e 520 877
e 520 846
e 521 894
e 521 725
e 524 855
e 525 971
e 525 633
e 528 538
e 528 818
e 528 557
e 528 975
e 530 640
e 530 723
e 530 843
e 533 831
e 534 869
e 534 537
e 536 881
e 536 575
e 537 988
e 538 591
e 538 790
e 538 726
e 538 589
e 538 603
e 539 664
e 539 564
e 539 764
e 542 807
e 542 898
e 543 636
e 543 831
e 545 896
e 545 597
e 548 818
e 549 697
e 550 639
e 551 828
e 551 651
e 551 891
e 552 994
e 552 593
e 552 704
e 552 920
e 552 887
e 554 578
e 554 787
e 557 716
e 557 727
e 558 638
e 558 848
e 560 727
e 560 664
e 560 845
e 561 683
e 561 750
e 561 721
e 561 946
e 561 841
e 561 623
e 562 712
e 563 852
e 563 780
e 563 699
e 564 756
e 564 755
e 564 894
e 565 670
e 565 689
e 567 837
e 567 909
e 568 977
e 569 623
e 569 996
e 569 684
e 569 693
e 569 598
e 571 678
e 571 695
e 573 906
e 574 968
e 575 946
e 576 957
e 576 589
e 578 840
e 578 996
e 578 664
e 578 640
e 578 848
e 579 596
e 579 870
e 580 732
e 580 756
e 581 990
e 581 737
e 581 799
e 581 963
e 582 819
e 582 973
e 582 868
e 584 825
e 587 862
e 589 648
e 591 909
e 591 723
e 591 854
e 592 600
e 593 618
e 596 700
e 597 828
e 597 654
e 597 830
e 600 834
e 600 700
e 601 854
e 602 826
e 602 714
e 602 811
e 603 830
e 603 933
e 604 900
e 604 668
e 604 948
e 605 878
e 605 924
e 605 780
e 606 658
e 608 671
e 608 923
e 608 807
e 610 711
e 611 975
e 614 981
e 615 992
e 615 690
e 619 796
e 619 802
e 621 877
e 621 947
e 621 843
e 622 810
e 622 669
e 622 641
e 623 942
e 623 938
e 625 989
e 625 799
e 626 635
e 626 712
e 626 797
e 627 853
e 630 871
e 630 931
e 631 921
e 632 732
e 632 741
e 633 893
e 634 934
e 636 686
e 637 720
e 637 805
e 640 721
e 644 853
e 644 779
e 644 653
e 644 988
e 644 977
e 644 661
e 645 995
e 647 666
e 647 925
e 647 896
e 647 807
e 649 983
e 649 917
e 652 878
e 652 722
e 653 939
e 653 774
e 655 943
e 655 667
e 655 917
e 656 925
e 656 983
e 658 699
e 658 665
e 658 783
e 659 954
e 659 748
e 659 968
e 659 992
e 660 788
e 660 786
e 660 913
e 662 908
e 662 934
e 663 815
e 666 982
e 666 839
e 666 823
e 667 917
e 667 891
e 668 993
e 669 670
e 670 835
e 671 987
e 672 946
e 674 696
e 677 944
e 677 700
e 678 962
e 680 921
e 680 973
e 682 815
e 682 995
e 683 863
e 684 888
e 685 848
e 686 925
e 686 997
e 689 896
e 690 828
e 690 757
e 693 996
e 693 706
e 694 918
e 694 897
e 694 925
e 694 806
e 696 896
e 696 999
e 697 791
e 697 815
e 698 818
e 699 708
e 700 716
e 700 764
e 701 928
e 701 885
e 705 975
e 705 763
e 706 990
e 707 911
e 707 922
e 707 885
e 708 852
e 709 878
e 711 756
e 711 867
e 715 804
e 715 841
e 715 743
e 717 922
e 719 987
e 721 906
e 722 756
e 722 985
e 722 816
e 723 758
e 723 914
e 723 886
e 724 939
e 724 942
e 725 746
e 725 908
e 730 987
e 730 926
e 730 815
e 730 888
e 731 838
e 732 993
e 734 999
e 734 928
e 737 831
e 738 830
e 741 763
e 746 914
e 749 766
e 750 993
e 752 913
e 752 988
e 752 825
e 753 913
e 753 861
e 755 769
e 756 995
e 757 768
e 757 920
e 757 992
e 758 964
e 759 949
e 759 983
e 760 805
e 764 790
e 765 942
e 766 807
e 767 944
e 767 934
e 768 994
e 770 992
e 775 979
e 775 799
e 776 838
e 776 823
e 777 933
e 777 909
e 777 899
e 777 849
e 779 878
e 781 891
e 781 922
e 783 827
e 783 933
e 783 835
e 784 850
e 785 800
e 790 952
e 796 897
e 797 881
e 798 915
e 802 805
e 802 968
e 802 959
e 804 829
e 805 897
e 805 866
e 806 819
e 811 920
e 811 827
e 815 975
e 817 829
e 822 871
e 822 986
e 822 939
e 822 851
e 825 898
e 828 989
e 832 874
e 832 837
e 832 934
e 833 866
e 835 908
e 838 862
e 839 968
e 840 869
e 841 888
e 841 921
e 845 875
e 845 946
e 845 849
e 846 929
e 847 891
e 852 950
e 855 932
e 860 984
e 860 948
e 862 913
e 865 986
e 865 927
e 867 983
e 870 938
e 870 954
e 873 946
e 873 960
e 874 918
e 877 963
e 879 939
e 881 908
e 884 968
e 886 943
e 886 893
e 888 981
e 888 984
e 899 950
e 899 993
e 905 961
e 906 963
e 911 939
e 915 979
e 923 929
e 931 963
e 934 983
e 947 960
e 948 988
e 949 963
e 961 984
e 971 993
e 981 993
